10J3M/DAT/10J3MNTL-16.dat
10 3
21.2804 21.2804
29.2843 29.2843
27.0915 27.0915
23.6199 23.6199
18.1802 18.1802
25.4013 25.4013
23.8897 23.8897
24.2454 24.2454
32.1223 32.1223
28.8242 28.8242
63.4848