10J3M/SOL/10J3MNTL-16.sol
solution status: optimal solution found
objective value:                              62.0209
x#2#3                                               1 	(obj:0)
x#3#1                                               1 	(obj:0)
x#4#2                                               1 	(obj:0)
x#5#3                                               1 	(obj:0)
x#6#1                                               1 	(obj:0)
x#7#2                                0.71444601167123 	(obj:0)
x#8#2                                               1 	(obj:0)
x#9#3                               0.121713547422985 	(obj:0)
x#10#1                              0.888911662225866 	(obj:0)
x#10#2                              0.111088337774134 	(obj:0)
z                                             62.0209 	(obj:1)
